50
9974

966 53
301 477
862 595
173 65
846 7
79 474
225 822
869 104
531 849
577 257
887 396
587 27
80 762
369 606
444 113
206 102
997 699
447 897
449 26
805 563
657 105
675 928
352 962
964 487
655 52
572 384
713 580
865 230
602 25
415 606
983 261
518 708
975 960
802 476
517 143
635 994
487 146
316 12
222 652
215 954
767 582
13 130
118 852
480 504
473 129
647 551
288 890
664 911
799 50
340 88
